p tw 25 75
0 1
0 8
0 14
0 21
0 19
0 4
0 24
0 16
1 10
1 2
1 16
1 15
1 17
1 24
1 20
2 3
2 10
2 4
2 20
2 21
2 23
3 9
3 19
3 10
3 13
3 4
3 11
4 5
4 19
4 9
4 21
4 18
5 17
5 15
5 20
5 19
5 9
5 24
5 13
5 7
6 7
6 8
6 16
7 13
7 11
8 16
8 13
8 23
8 14
8 19
9 11
9 19
9 13
10 14
10 22
11 12
11 13
11 20
12 14
12 18
12 22
12 19
13 15
13 17
13 18
14 21
14 23
14 16
16 18
16 21
18 19
18 22
19 20
19 22
20 21
